(define-fun inv2 ((x!0 Int)
 (x!1 Int)
 (x!2 Int)
 (x!3 Int)
 (x!4 Int)
 (x!5 Int)
 (x!6 Int)) Bool
  (let ((a!1 (not (<= (+ x!0 (* (- 1) x!4)) (- 2))))
        (a!2 (not (>= (+ x!1 (* (- 1) x!4)) 1)))
        (a!3 (not (>= (+ x!0 (* (- 1) x!1)) 1)))
        (a!4 (not (<= (+ x!0 (* (- 1) x!1)) (- 2))))
        (a!5 (not (>= (+ x!0 (* (- 1) x!3)) (- 4999))))
        (a!6 (not (>= (+ x!1 (* (- 1) x!3)) (- 4996))))
        (a!7 (not (<= (+ x!0 (* (- 1) x!1)) (- 1))))
        (a!8 (not (>= (+ x!0 (* (- 1) x!3)) (- 4996))))
        (a!9 (not (<= (+ x!1 (* (- 1) x!4)) (- 1))))
        (a!10 (not (<= (+ x!3 (* (- 1) x!4)) 4996)))
        (a!11 (not (<= (+ x!0 (* (- 1) x!4)) (- 1))))
        (a!12 (not (>= (+ x!0 (* (- 1) x!4)) (- 3))))
        (a!13 (not (= (+ x!2 (* (- 1) x!4)) 0)))
        (a!14 (not (= (+ x!5 (* (- 1) x!6)) 0)))
        (a!15 (not (>= (+ x!3 (* (- 1) x!4)) 2)))
        (a!16 (not (<= (+ x!0 (* (- 1) x!3)) (- 2))))
        (a!17 (not (>= (+ x!0 (* (- 1) x!4)) 0))))
    (and (or a!1 a!2)
         a!3
         (or a!4 a!5 a!6)
         (or a!7 a!8)
         a!9
         a!10
         (or a!11 a!12 a!13 a!14 a!2 a!15)
         (or a!7 a!16 a!17 a!13 a!14))))

